61
100
80	4
79	13
78	7
77	12
76	7
75	5
74	9
73	6
72	10
71	3
70	9
69	10
68	9
67	10
66	4
65	8
64	9
63	8
62	14
61	7
60	8
59	10
58	11
57	7
56	10
55	8
54	11
53	7
52	12
51	8
50	4
49	7
48	2
47	9
46	7
45	7
44	7
43	8
42	8
41	6
40	9
39	6
38	6
37	9
36	4
35	9
34	14
33	9
32	11
31	10
30	6
29	7
28	10
27	8
26	13
25	4
24	7
23	14
22	7
21	10
20	6
